p cnf 199 624
a 53 54 61 60 56 57 58 59 31 32 0
e 26 52 19 7 24 27 12 23 28 11 10 9 8 6 5 1 2 3 4 0
a 13 14 0
e 25 51 15 55 18 20 21 22 0
a 29 30 43 42 38 39 40 41 0
e 62 44 16 17 64 65 66 67 68 69 70 71 72 73 74 75 76 77 78 79 80 81 82 83 84 85 86 87 88 89 90 91 92 93 94 95 96 97 98 99 100 101 102 103 104 105 106 107 108 109 110 111 112 113 114 115 116 117 118 119 120 121 122 123 124 125 126 127 128 129 130 131 132 133 134 135 136 137 138 139 140 141 142 143 144 145 146 147 148 149 150 151 152 153 154 155 156 157 158 159 160 161 162 163 164 165 166 167 168 169 170 171 172 173 174 175 176 177 178 179 180 181 182 183 184 185 186 187 188 189 190 191 192 193 194 195 196 197 198 199 0
d 63 31 32 29 30 0
d 33 31 32 29 30 0
d 34 31 32 29 30 0
d 35 31 32 29 30 0
d 36 31 32 29 30 0
d 37 31 32 29 30 0
d 50 13 14 43 42 38 39 40 41 29 30 0
d 49 13 14 43 42 38 39 40 41 29 30 0
d 45 13 14 43 42 38 39 40 41 29 30 0
d 46 13 14 43 42 38 39 40 41 29 30 0
d 47 13 14 43 42 38 39 40 41 29 30 0
d 48 13 14 43 42 38 39 40 41 29 30 0
-37 -9 49 44 0
-10 -37 50 44 0
-18 -37 44 45 0
46 -37 44 -20 0
-37 44 47 -21 0
-37 48 -22 44 0
-45 -37 44 18 0
-46 -37 44 20 0
-37 21 44 -47 0
-37 44 22 -48 0
-37 -49 44 9 0
-37 -50 44 10 0
12 -15 0
-26 23 0
-19 11 0
28 -52 0
-25 24 0
27 -51 0
-45 1 55 62 63 0
-46 2 55 62 63 0
3 55 62 63 -47 0
55 4 62 63 -48 0
55 5 62 63 -49 0
55 6 62 63 -50 0
55 62 63 -1 45 0
46 55 62 63 -2 0
47 55 62 63 -3 0
48 55 62 63 -4 0
49 55 62 63 -5 0
50 55 62 63 -6 0
-32 -31 7 0
-32 -31 8 0
-2 31 32 0
-3 31 32 0
32 31 -4 0
-6 31 32 0
5 31 32 0
1 31 32 0
-16 66 0
-17 69 0
70 1 0
-1 -70 0
71 2 0
-2 -71 0
3 72 0
-3 -72 0
4 73 0
-73 -4 0
5 74 0
-74 -5 0
6 75 0
-75 -6 0
1 2 3 7 -4 0
4 -7 0
-1 -7 0
-2 -7 0
-3 -7 0
8 -4 0
4 -8 0
110 8 -6 0
6 -110 0
-8 -110 0
111 -8 -5 0
5 -111 0
8 -111 0
112 8 -5 0
5 -112 0
-8 -112 0
-8 113 -6 0
6 -113 0
-113 8 0
11 -5 0
-11 5 0
12 -6 0
6 -12 0
13 76 0
-76 -13 0
77 14 0
-77 -14 0
114 -14 8 -12 13 0
12 -114 0
-114 14 0
-114 -8 0
-114 -13 0
-106 115 108 0
-115 106 0
-108 -115 0
8 16 0
-16 -8 0
8 17 0
-17 -8 0
-1 -15 8 116 0
-116 15 0
-116 1 0
-116 -8 0
117 -2 -15 8 0
-117 15 0
-117 2 0
-117 -8 0
-3 118 -15 8 0
15 -118 0
3 -118 0
-8 -118 0
-15 119 8 -4 0
15 -119 0
4 -119 0
-8 -119 0
-19 -1 120 8 0
19 -120 0
-120 1 0
-8 -120 0
-19 -2 121 8 0
19 -121 0
-121 2 0
-8 -121 0
-19 8 122 -3 0
19 -122 0
3 -122 0
-122 -8 0
-19 8 123 -4 0
19 -123 0
4 -123 0
-123 -8 0
-1 -8 124 0
-124 1 0
-124 8 0
19 104 -102 0
-19 102 0
-19 -104 0
125 -1 -15 8 0
-125 15 0
-125 1 0
-125 -8 0
-19 126 -1 8 0
19 -126 0
1 -126 0
-8 -126 0
-1 -26 127 8 0
-127 26 0
1 -127 0
-8 -127 0
-1 -25 128 8 0
-128 25 0
-128 1 0
-8 -128 0
-2 -8 129 0
-129 2 0
-129 8 0
-2 -15 8 130 0
-130 15 0
-130 2 0
-130 -8 0
-19 -2 8 131 0
19 -131 0
-131 2 0
-131 -8 0
-26 -2 8 132 0
-132 26 0
-132 2 0
-132 -8 0
133 -2 -25 8 0
-133 25 0
-133 2 0
-133 -8 0
-3 134 -8 0
3 -134 0
8 -134 0
-15 135 8 -3 0
15 -135 0
3 -135 0
-8 -135 0
-19 136 8 -3 0
19 -136 0
3 -136 0
-8 -136 0
-3 -26 137 8 0
-137 26 0
3 -137 0
-8 -137 0
-3 -25 8 138 0
-138 25 0
3 -138 0
-138 -8 0
-8 139 -4 0
4 -139 0
-139 8 0
23 -5 0
5 -23 0
24 -6 0
6 -24 0
8 13 14 -24 140 0
-140 24 0
-140 -8 0
-140 -14 0
-140 -13 0
141 -106 107 0
-141 106 0
-141 -107 0
103 -102 26 0
-26 102 0
-26 -103 0
27 -5 0
-27 5 0
28 -6 0
6 -28 0
78 29 0
-29 -78 0
79 30 0
-30 -79 0
80 31 0
-31 -80 0
81 32 0
-32 -81 0
142 31 0
-31 -142 0
143 -29 0
29 -143 0
144 -34 0
34 -144 0
145 32 0
-32 -145 0
-30 146 0
-146 30 0
31 -29 147 0
-147 29 0
-147 -31 0
-31 29 148 0
-148 31 0
-148 -29 0
149 -30 32 0
-149 30 0
-149 -32 0
150 -32 30 0
32 -150 0
-30 -150 0
151 -35 0
35 -151 0
152 -35 31 -33 34 -29 0
29 -152 0
33 -152 0
35 -152 0
-152 -34 0
-31 -152 0
-36 153 -34 32 -30 35 0
-153 30 0
34 -153 0
-153 36 0
-35 -153 0
-32 -153 0
38 82 0
-38 -82 0
39 83 0
-83 -39 0
40 84 0
-84 -40 0
85 41 0
-85 -41 0
86 42 0
-42 -86 0
87 43 0
-43 -87 0
-38 154 1 0
38 -154 0
-1 -154 0
2 155 -39 0
39 -155 0
-2 -155 0
3 -40 156 0
-156 40 0
-3 -156 0
157 4 -41 0
-157 41 0
-157 -4 0
158 5 -42 0
42 -158 0
-5 -158 0
6 159 -43 0
43 -159 0
-6 -159 0
38 -1 160 0
-160 1 0
-38 -160 0
-2 161 39 0
-161 2 0
-161 -39 0
-3 40 162 0
3 -162 0
-162 -40 0
41 163 -4 0
4 -163 0
-163 -41 0
42 -5 164 0
-164 5 0
-164 -42 0
165 43 -6 0
-165 6 0
-165 -43 0
88 45 0
-45 -88 0
46 89 0
-46 -89 0
47 90 0
-90 -47 0
48 91 0
-91 -48 0
49 92 0
-92 -49 0
93 50 0
-93 -50 0
-13 8 14 -27 166 0
27 -166 0
13 -166 0
-8 -166 0
-14 -166 0
109 167 -106 0
106 -167 0
-109 -167 0
105 52 -102 0
102 -52 0
-52 -105 0
94 53 0
-53 -94 0
54 95 0
-54 -95 0
-53 168 13 0
-168 53 0
-13 -168 0
-54 169 14 0
54 -169 0
-14 -169 0
-13 170 53 0
-170 13 0
-53 -170 0
54 -14 171 0
-171 14 0
-54 -171 0
56 96 0
-96 -56 0
57 97 0
-97 -57 0
58 98 0
-98 -58 0
59 99 0
-99 -59 0
60 100 0
-100 -60 0
101 61 0
-101 -61 0
38 -56 172 0
-172 56 0
-38 -172 0
173 39 -57 0
-173 57 0
-173 -39 0
174 40 -58 0
58 -174 0
-40 -174 0
41 175 -59 0
59 -175 0
-41 -175 0
-60 176 42 0
-176 60 0
-42 -176 0
-61 177 43 0
-177 61 0
-43 -177 0
-38 56 178 0
38 -178 0
-178 -56 0
57 179 -39 0
39 -179 0
-179 -57 0
58 -40 180 0
-180 40 0
-180 -58 0
181 -41 59 0
-181 41 0
-181 -59 0
182 -42 60 0
42 -182 0
-60 -182 0
183 -43 61 0
43 -183 0
-61 -183 0
-31 184 29 0
-184 31 0
-29 -184 0
-32 185 30 0
-185 32 0
-30 -185 0
-29 186 31 0
-186 29 0
-31 -186 0
-30 187 32 0
-187 30 0
-32 -187 0
-26 188 0
-188 26 0
189 -19 0
-189 19 0
190 -52 0
52 -190 0
-19 -26 191 0
-191 26 0
19 -191 0
-26 -52 192 0
-192 26 0
-192 52 0
-19 -52 193 0
19 -193 0
-193 52 0
65 66 -64 0
64 -66 0
-66 -65 0
-25 194 0
-194 25 0
-15 195 0
-195 15 0
-51 196 0
-196 51 0
197 -15 -25 0
-197 25 0
-197 15 0
198 -25 -51 0
25 -198 0
51 -198 0
-15 199 -51 0
15 -199 0
51 -199 0
-67 68 69 0
-69 67 0
-69 -68 0
70 1 0
-1 -70 0
71 2 0
-2 -71 0
3 72 0
-3 -72 0
4 73 0
-73 -4 0
5 74 0
-74 -5 0
6 75 0
-75 -6 0
13 76 0
-76 -13 0
77 14 0
-77 -14 0
78 29 0
-29 -78 0
79 30 0
-30 -79 0
80 31 0
-31 -80 0
81 32 0
-32 -81 0
38 82 0
-38 -82 0
39 83 0
-83 -39 0
40 84 0
-84 -40 0
85 41 0
-85 -41 0
86 42 0
-42 -86 0
87 43 0
-43 -87 0
88 45 0
-45 -88 0
46 89 0
-46 -89 0
47 90 0
-90 -47 0
48 91 0
-91 -48 0
49 92 0
-92 -49 0
93 50 0
-93 -50 0
94 53 0
-53 -94 0
54 95 0
-54 -95 0
56 96 0
-96 -56 0
57 97 0
-97 -57 0
58 98 0
-98 -58 0
59 99 0
-99 -59 0
60 100 0
-100 -60 0
101 61 0
-101 -61 0
102 -16 0
16 -102 0
103 26 0
-26 -103 0
19 104 0
-19 -104 0
105 52 0
-52 -105 0
-17 106 0
-106 17 0
25 107 0
-107 -25 0
15 108 0
-108 -15 0
109 51 0
-109 -51 0
110 -9 111 0
9 -110 0
9 -111 0
-10 112 113 0
-112 10 0
-113 10 0
-15 114 115 0
-114 15 0
-115 15 0
-18 116 117 118 119 120 121 122 123 124 0
-116 18 0
-117 18 0
-118 18 0
-119 18 0
-120 18 0
-121 18 0
-122 18 0
-123 18 0
-124 18 0
125 126 127 128 129 -20 0
-125 20 0
20 -126 0
20 -127 0
20 -128 0
20 -129 0
130 131 132 133 134 -21 0
21 -130 0
21 -131 0
-132 21 0
-133 21 0
21 -134 0
-22 135 136 137 138 139 0
22 -135 0
22 -136 0
22 -137 0
-138 22 0
-139 22 0
141 -25 140 0
-140 25 0
-141 25 0
-33 142 143 144 0
33 -142 0
33 -143 0
33 -144 0
145 146 -34 0
34 -145 0
34 -146 0
-35 147 148 0
-147 35 0
-148 35 0
149 150 -36 151 0
-149 36 0
36 -150 0
36 -151 0
-37 152 153 0
-152 37 0
-153 37 0
-44 154 155 156 157 158 159 160 161 162 163 164 165 0
-154 44 0
-155 44 0
-156 44 0
-157 44 0
44 -158 0
44 -159 0
-160 44 0
-161 44 0
-162 44 0
-163 44 0
-164 44 0
-165 44 0
166 167 -51 0
51 -166 0
51 -167 0
-55 168 169 170 171 0
55 -168 0
55 -169 0
55 -170 0
55 -171 0
173 174 175 176 177 178 179 180 181 182 183 -62 172 0
62 -172 0
62 -173 0
62 -174 0
62 -175 0
62 -176 0
62 -177 0
62 -178 0
62 -179 0
62 -180 0
62 -181 0
62 -182 0
62 -183 0
184 185 186 187 -63 0
63 -184 0
63 -185 0
63 -186 0
63 -187 0
189 190 -64 188 0
-188 64 0
-189 64 0
64 -190 0
191 192 193 -65 0
65 -191 0
65 -192 0
65 -193 0
-67 194 195 196 0
-194 67 0
-195 67 0
-196 67 0
197 198 -68 199 0
-197 68 0
68 -198 0
-199 68 0
